NAME : XML100_3232_02
DIMENSION : 101
NB_CLUSTERS : 17
CLUSTERING_ALG : DBSCAN
CLUSTERING_PARAMS : eps(41), minSamples(3)
CLUSTERS
1 0
2 1 2 13 23 29 52 60 68 72 97
3 3 11 22 56
4 5 8 12 21 27 77
5 15 16 44 47 49 53 64 66 70 73 78 82 84 93
6 19 33 45 62 71 79 88 89 94 98 99
7 20 24 26 28 32 36 38 40 51 54 61 65 80 83 92
8 7 18 31 34 35 39 48 69 74 85
9 42 75 76 90 91 96 100
10 9 10 37
11 43 63 86
12 6 59
13 14 58 87 95
14 17 41 81
15 4 46 57
16 25 50 67
17 30 55
EOF